Route #1: 21 85 54 13 40 31 63 57 29
Route #2: 82 94 64 105 69 17 2 83 77 101
Route #3: 96 43 93 28 103 53 100 45
Route #4: 72 34 74 11 99 49 97
Route #5: 5 15 76 87 60 51 44
Route #6: 14 58 88 91 36 8 48 67
Route #7: 1 104 12 9 84 75 7
Route #8: 62 26 90 24 102 92 52
Route #9: 22 33
Route #10: 66 46 71 79 37 27 19 78
Route #11: 56 20 16 10 41 18 86
Route #12: 59 89 30 42 23 3 32 73 35
Route #13: 39 50 81 6 70 4 98 55
Route #14: 25 47 61 80 65 38 95 68
Cost 26370
